
Gurobi 11.0.3 (mac64[arm]) logging started Thu Sep 26 13:39:29 2024

Set parameter LogFile to value "SampleModel.log"
Gurobi Optimizer version 11.0.3 build v11.0.3rc0 (mac64[arm] - Darwin 23.4.0 23E214)

CPU model: Apple M1 Pro
Thread count: 8 physical cores, 8 logical processors, using up to 8 threads

Optimize a model with 60667 rows, 41135 columns and 160546 nonzeros
Model fingerprint: 0xd34f1c51
Variable types: 39633 continuous, 1502 integer (0 binary)
Coefficient statistics:
  Matrix range     [1e-03, 4e+05]
  Objective range  [2e-04, 2e-04]
  Bounds range     [0e+00, 0e+00]
  RHS range        [1e+01, 7e+03]
Presolve removed 28748 rows and 21548 columns
Presolve time: 0.08s
Presolved: 31919 rows, 19587 columns, 95798 nonzeros
Variable types: 18085 continuous, 1502 integer (0 binary)

Root simplex log...

Iteration    Objective       Primal Inf.    Dual Inf.      Time
   16349    7.3055987e+00   0.000000e+00   6.873222e-01      5s
   22749    3.4971672e+00   0.000000e+00   9.625668e-01     10s

Root relaxation: interrupted, 24859 iterations, 11.70 seconds (26.68 work units)

    Nodes    |    Current Node    |     Objective Bounds      |     Work
 Expl Unexpl |  Obj  Depth IntInf | Incumbent    BestBd   Gap | It/Node Time

     0     0          -    0               -          -      -     -   11s
H    0     0                    9011.0723417          -      -     -   11s

Explored 1 nodes (24859 simplex iterations) in 11.84 seconds (26.96 work units)
Thread count was 8 (of 8 available processors)

Solution count 1: 9011.07 

Solve interrupted
Best objective 9.011072341674e+03, best bound -, gap -

Gurobi 11.0.3 (mac64[arm]) logging started Thu Sep 26 13:45:11 2024

Set parameter LogFile to value "SampleModel.log"
Gurobi Optimizer version 11.0.3 build v11.0.3rc0 (mac64[arm] - Darwin 23.4.0 23E214)

CPU model: Apple M1 Pro
Thread count: 8 physical cores, 8 logical processors, using up to 8 threads

Optimize a model with 60667 rows, 41135 columns and 160546 nonzeros
Model fingerprint: 0xd34f1c51
Variable types: 39633 continuous, 1502 integer (0 binary)
Coefficient statistics:
  Matrix range     [1e-03, 4e+05]
  Objective range  [2e-04, 2e-04]
  Bounds range     [0e+00, 0e+00]
  RHS range        [1e+01, 7e+03]
Presolve removed 28748 rows and 21548 columns
Presolve time: 0.08s
Presolved: 31919 rows, 19587 columns, 95798 nonzeros
Variable types: 18085 continuous, 1502 integer (0 binary)

Root simplex log...

Iteration    Objective       Primal Inf.    Dual Inf.      Time
   15739    8.4712639e+00   0.000000e+00   1.633389e-01      5s

Root relaxation: interrupted, 15802 iterations, 4.94 seconds (10.70 work units)

    Nodes    |    Current Node    |     Objective Bounds      |     Work
 Expl Unexpl |  Obj  Depth IntInf | Incumbent    BestBd   Gap | It/Node Time

     0     0          -    0               -          -      -     -    5s
H    0     0                    9011.0723417          -      -     -    5s

Explored 1 nodes (15802 simplex iterations) in 5.08 seconds (10.98 work units)
Thread count was 8 (of 8 available processors)

Solution count 1: 9011.07 

Solve interrupted
Best objective 9.011072341674e+03, best bound -, gap -

Gurobi 11.0.3 (mac64[arm]) logging started Thu Sep 26 13:50:46 2024

Set parameter LogFile to value "SampleModel.log"
Gurobi Optimizer version 11.0.3 build v11.0.3rc0 (mac64[arm] - Darwin 23.4.0 23E214)

CPU model: Apple M1 Pro
Thread count: 8 physical cores, 8 logical processors, using up to 8 threads

Optimize a model with 60667 rows, 41135 columns and 160546 nonzeros
Model fingerprint: 0xd34f1c51
Variable types: 39633 continuous, 1502 integer (0 binary)
Coefficient statistics:
  Matrix range     [1e-03, 4e+05]
  Objective range  [2e-04, 2e-04]
  Bounds range     [0e+00, 0e+00]
  RHS range        [1e+01, 7e+03]
Presolve removed 28748 rows and 21548 columns
Presolve time: 0.08s
Presolved: 31919 rows, 19587 columns, 95798 nonzeros
Variable types: 18085 continuous, 1502 integer (0 binary)

Root simplex log...

Iteration    Objective       Primal Inf.    Dual Inf.      Time
   16249    7.5572875e+00   0.000000e+00   2.782995e-01      5s
   22639    3.5073659e+00   0.000000e+00   1.541009e+00     10s
   28265    3.3719327e+00   0.000000e+00   0.000000e+00     15s

Root relaxation: objective 3.371933e+00, 28265 iterations, 14.58 seconds (32.80 work units)

    Nodes    |    Current Node    |     Objective Bounds      |     Work
 Expl Unexpl |  Obj  Depth IntInf | Incumbent    BestBd   Gap | It/Node Time

     0     0    3.37193    0 1236          -    3.37193      -     -   14s
H    0     0                    9011.0723417    3.37193   100%     -   16s
     0     0    3.38305    0 1250 9011.07234    3.38305   100%     -   17s
     0     0    3.38365    0 1250 9011.07234    3.38365   100%     -   19s
     0     0    3.38365    0 1255 9011.07234    3.38365   100%     -   19s
     0     0    3.38365    0 1255 9011.07234    3.38365   100%     -   19s
     0     0    3.38368    0 1256 9011.07234    3.38368   100%     -   20s
     0     0    3.38368    0 1256 9011.07234    3.38368   100%     -   22s
     0     0    3.38368    0 1256 9011.07234    3.38368   100%     -   22s
     0     0    3.38368    0 1255 9011.07234    3.38368   100%     -   23s
     0     2    3.38368    0 1255 9011.07234    3.38368   100%     -   24s
     7    16    3.38660    3 1245 9011.07234    3.38368   100%  53.6   25s
    31    40    3.41290    5 1238 9011.07234    3.38368   100%  95.3   30s
    70    79    3.41417    9 1231 9011.07234    3.38368   100%   105   35s
   281   314    3.42675   33 1213 9011.07234    3.38368   100%  84.6   40s
H  511   565                    9008.6585105    3.38368   100%  62.3   42s
H  559   565                    9008.5913201    3.38368   100%  58.0   42s
H  651   683                    8660.6559034    3.38368   100%  55.6   46s
H  671   683                    2777.5893168    3.38368   100%  54.2   46s
H  723   732                      13.5688512    3.38368  75.1%  59.2   69s
H  724   732                       9.7177398    3.38368  65.2%  59.3   69s
   731   746    3.47599   75 1201    9.71774    3.38368  65.2%  60.2   73s
H  733   746                       4.3271137    3.38368  21.8%  60.1   73s
   745   809    3.47599   76 1201    4.32711    3.38368  21.8%  65.2   75s
   943   965    3.51288  110 1179    4.32711    3.38368  21.8%  78.7   80s
  1033  1042    3.51808  114 1176    4.32711    3.38368  21.8%  92.8   90s
H 1034  1042                       4.1098809    3.38368  17.7%  92.7   90s
H 1038  1042                       4.0891232    3.38368  17.3%  92.6   90s
  1198  1358    3.52412  119 1171    4.08912    3.38368  17.3%  94.7   96s
  1701  1986    3.57313  123 1046    4.08912    3.38368  17.3%  76.8  100s
  2202  2232    3.57740  169 1002    4.08912    3.38368  17.3%  62.3  105s
  3416  3616    3.58211  330  860    4.08912    3.38368  17.3%  44.1  110s
  4506  4728    3.58595  454  733    4.08912    3.38368  17.3%  38.5  115s
  5188  5405    3.59293  552  658    4.08912    3.38368  17.3%  36.7  120s
  6528  6824    3.59948  641  592    4.08912    3.38368  17.3%  34.5  126s
  7517  7518    3.59491  583 1255    4.08912    3.38368  17.3%  33.1  166s
  7519  7519    3.60236  629 1241    4.08912    3.38368  17.3%  33.1  185s
  7521  7521    3.59262  688 1254    4.08912    3.38391  17.2%  33.0  190s
  7524  7523    3.44048   57 1259    4.08912    3.38500  17.2%  33.0  197s
  7526  7524    3.61303  755 1260    4.08912    3.38535  17.2%  33.0  200s
  7530  7527    3.60496  538 1256    4.08912    3.38537  17.2%  33.0  205s
  7536  7531    3.62019  827 1256    4.08912    3.38537  17.2%  33.0  210s
  7543  7536    3.65857  216 1240    4.08912    3.38537  17.2%  38.5  237s
  7544  7537    3.58214  418 1251    4.08912    3.38537  17.2%  38.5  242s
  7546  7538    3.57570  326 1259    4.08912    3.38537  17.2%  38.5  245s
  7550  7541    3.59452  694 1260    4.08912    3.38537  17.2%  38.5  250s
  7556  7545    3.58109  254 1259    4.08912    3.38537  17.2%  38.4  255s
  7557  7546    3.57987  213 1259    4.08912    3.38537  17.2%  38.4  272s
  7560  7553    3.38537   26 1262    4.08912    3.38537  17.2%  44.5  275s
  7588  7575    3.38537   29 1256    4.08912    3.38537  17.2%  46.3  281s
  7618  7601    3.38618   31 1253    4.08912    3.38618  17.2%  47.2  285s
  7632  7607    3.39180   32 1262    4.08912    3.38618  17.2%  48.1  294s
  7642  7616    3.38618   32 1253    4.08912    3.38618  17.2%  48.1  296s
  7664  7633    3.39166   34 1258    4.08912    3.38709  17.2%  50.7  300s
  7696  7654    3.39336   35 1254    4.08912    3.38775  17.2%  54.0  307s
  7711  7658    3.39166   35 1261    4.08912    3.38775  17.2%  57.2  318s
  7720  7665    3.39611   36 1254    4.08912    3.38775  17.2%  58.0  322s
  7730  7683    3.41623   36 1240    4.08912    3.38775  17.2%  61.6  326s
  7770  7702    3.40234   39 1247    4.08912    3.38775  17.2%  68.1  335s
  7801  7721    3.45462   40 1130    4.08912    3.38775  17.2%  76.0  343s
  7813  7730    3.40425   41 1249    4.08912    3.38775  17.2%  78.3  347s
  7826  7742    3.40513   42 1251    4.08912    3.38775  17.2%  81.3  351s
  7842  7751    3.40539   43 1250    4.08912    3.38775  17.2%  84.5  355s
  7856  7762    3.45499   43 1147    4.08912    3.38775  17.2%  88.4  360s
  7892  7785    3.40588   45 1248    4.08912    3.38775  17.2%  94.8  370s
  7922  7812    3.40665   47 1240    4.08912    3.38775  17.2%   101  378s
  7944  7820    3.40673   48 1239    4.08912    3.38775  17.2%   106  383s
  7959  7830    3.40679   49 1238    4.08912    3.38775  17.2%   109  387s
  7974  7843    3.40711   50 1237    4.08912    3.38775  17.2%   112  391s
  7992  7854    3.40721   51 1237    4.08912    3.38775  17.2%   115  397s
  8009  7865    3.40766   52 1238    4.08912    3.38775  17.2%   119  401s
  8026  7891    3.40797   53 1237    4.08912    3.38775  17.2%   123  407s
  8058  7908    3.40803   54 1237    4.08912    3.38775  17.2%   126  413s
  8085  7914    3.40871   55 1236    4.08912    3.38775  17.2%   130  419s
  8100  7945    3.40883   56 1235    4.08912    3.38775  17.2%   133  425s
H 8136  7567                       4.0355428    3.38775  16.1%   137  477s
  8148  7585    3.45776   57 1135    4.03554    3.38775  16.1%   138  483s
  8170  7606    3.40896   58 1233    4.03554    3.38775  16.1%   141  491s
  8199  7644    3.40920   59 1232    4.03554    3.38775  16.1%   145  499s
  8246  7676    3.40929   61 1230    4.03554    3.38775  16.1%   151  508s
  8294  7738    3.40956   63 1228    4.03554    3.38775  16.1%   155  516s
  8372  7766    3.40982   65 1226    4.03554    3.38775  16.1%   159  524s
  8426  7788    3.40992   67 1224    4.03554    3.38775  16.1%   163  531s
  8466  7815    3.41030   69 1222    4.03554    3.38775  16.1%   169  539s
  8506  7887    3.41102   71 1221    4.03554    3.38775  16.1%   174  551s
  8592  7901    3.41123   74 1216    4.03554    3.38775  16.1%   179  559s
  8634  7932    3.41137   76 1215    4.03554    3.38775  16.1%   184  564s

Cutting planes:
  Gomory: 8
  MIR: 854

Explored 8679 nodes (1638315 simplex iterations) in 565.00 seconds (1544.86 work units)
Thread count was 8 (of 8 available processors)

Solution count 10: 4.03554 4.03554 4.08912 ... 9008.59

Solve interrupted
Best objective 4.035542795795e+00, best bound 3.387745911460e+00, gap 16.0523%

Gurobi 11.0.3 (mac64[arm]) logging started Thu Sep 26 14:01:08 2024

Set parameter LogFile to value "SampleModel.log"
Gurobi Optimizer version 11.0.3 build v11.0.3rc0 (mac64[arm] - Darwin 23.4.0 23E214)

CPU model: Apple M1 Pro
Thread count: 8 physical cores, 8 logical processors, using up to 8 threads

Optimize a model with 60667 rows, 41135 columns and 165495 nonzeros
Model fingerprint: 0x2d905663
Variable types: 39633 continuous, 1502 integer (0 binary)
Coefficient statistics:
  Matrix range     [1e-03, 9e+04]
  Objective range  [2e-04, 2e-04]
  Bounds range     [0e+00, 0e+00]
  RHS range        [1e+00, 7e+03]
Presolve removed 28056 rows and 20739 columns
Presolve time: 0.08s
Presolved: 32611 rows, 20396 columns, 102132 nonzeros
Variable types: 18894 continuous, 1502 integer (0 binary)
Deterministic concurrent LP optimizer: primal and dual simplex
Showing primal log only...


Root simplex log...

Iteration    Objective       Primal Inf.    Dual Inf.      Time
   13892    6.5710304e+00   0.000000e+00   7.510004e+00      5s
   21422    4.9989455e+00   0.000000e+00   2.964676e+03     10s
   27158    4.7356763e+00   0.000000e+00   0.000000e+00     14s
Concurrent spin time: 2.69s (can be avoided by choosing Method=3)

Solved with primal simplex

Root relaxation: objective 4.735676e+00, 27158 iterations, 16.32 seconds (34.09 work units)

    Nodes    |    Current Node    |     Objective Bounds      |     Work
 Expl Unexpl |  Obj  Depth IntInf | Incumbent    BestBd   Gap | It/Node Time

     0     0    4.73568    0 1276          -    4.73568      -     -   17s
     0     0    4.73569    0 1275          -    4.73569      -     -   18s
     0     0    4.73569    0 1275          -    4.73569      -     -   19s
     0     0    4.73569    0 1275          -    4.73569      -     -   20s
     0     0    4.73569    0 1275          -    4.73569      -     -   20s
     0     0    4.73569    0 1275          -    4.73569      -     -   22s
H    0     0                    1177.2676089    4.73569   100%     -   27s
     0     2    4.73569    0 1275 1177.26761    4.73569   100%     -   28s
     7    16    4.78643    3 1304 1177.26761    4.73569   100%   668   30s
    31    40    4.79116    6 1291 1177.26761    4.73579   100%   411   37s
    84   105    4.82313    9 1269 1177.26761    4.73579   100%   345   40s
   191   221    4.84096   18 1227 1177.26761    4.73579   100%   228   47s
   279   307    4.85226   28 1234 1177.26761    4.73579   100%   214   50s
   403   412    4.85277   35 1246 1177.26761    4.73579   100%   172   57s
H  404   412                       5.3909897    4.73579  12.2%   172   57s
H  405   412                       5.0769556    4.73579  6.72%   172   57s

Cutting planes:
  Gomory: 2
  MIR: 14

Explored 411 nodes (99179 simplex iterations) in 57.50 seconds (155.98 work units)
Thread count was 8 (of 8 available processors)

Solution count 4: 5.07696 5.07696 5.39099 1177.27 

Optimal solution found (tolerance 7.00e-02)
Best objective 5.076955571808e+00, best bound 4.735791648061e+00, gap 6.7199%

Gurobi 11.0.3 (mac64[arm]) logging started Thu Sep 26 14:14:25 2024

Set parameter LogFile to value "SampleModel.log"
Gurobi Optimizer version 11.0.3 build v11.0.3rc0 (mac64[arm] - Darwin 23.4.0 23E214)

CPU model: Apple M1 Pro
Thread count: 8 physical cores, 8 logical processors, using up to 8 threads

Optimize a model with 60667 rows, 41135 columns and 165495 nonzeros
Model fingerprint: 0x2d905663
Variable types: 39633 continuous, 1502 integer (0 binary)
Coefficient statistics:
  Matrix range     [1e-03, 9e+04]
  Objective range  [2e-04, 2e-04]
  Bounds range     [0e+00, 0e+00]
  RHS range        [1e+00, 7e+03]
Presolve removed 28056 rows and 20739 columns
Presolve time: 0.08s
Presolved: 32611 rows, 20396 columns, 102132 nonzeros
Variable types: 18894 continuous, 1502 integer (0 binary)
Deterministic concurrent LP optimizer: primal and dual simplex
Showing primal log only...


Root simplex log...

Iteration    Objective       Primal Inf.    Dual Inf.      Time
   13892    6.5710304e+00   0.000000e+00   7.510004e+00      5s
   21422    4.9989455e+00   0.000000e+00   2.964676e+03     10s
   27158    4.7356763e+00   0.000000e+00   0.000000e+00     14s
Concurrent spin time: 2.66s (can be avoided by choosing Method=3)

Solved with primal simplex

Root relaxation: objective 4.735676e+00, 27158 iterations, 16.21 seconds (34.09 work units)

    Nodes    |    Current Node    |     Objective Bounds      |     Work
 Expl Unexpl |  Obj  Depth IntInf | Incumbent    BestBd   Gap | It/Node Time

     0     0    4.73568    0 1276          -    4.73568      -     -   17s
     0     0    4.73569    0 1275          -    4.73569      -     -   18s
     0     0    4.73569    0 1275          -    4.73569      -     -   19s
     0     0    4.73569    0 1275          -    4.73569      -     -   19s
     0     0    4.73569    0 1275          -    4.73569      -     -   20s
     0     0    4.73569    0 1275          -    4.73569      -     -   22s
H    0     0                    1177.2676089    4.73569   100%     -   26s
     0     2    4.73569    0 1275 1177.26761    4.73569   100%     -   28s
     7    16    4.78643    3 1304 1177.26761    4.73569   100%   668   30s
    31    40    4.79116    6 1291 1177.26761    4.73579   100%   411   36s
   104   124    4.82318   10 1263 1177.26761    4.73579   100%   291   40s
   191   221    4.84096   18 1227 1177.26761    4.73579   100%   228   46s
   306   352    4.85331   29 1244 1177.26761    4.73579   100%   204   50s
   403   412    4.85277   35 1246 1177.26761    4.73579   100%   172   56s
H  404   412                       5.3909897    4.73579  12.2%   172   56s
H  405   412                       5.0769556    4.73579  6.72%   172   56s

Cutting planes:
  Gomory: 2
  MIR: 14

Explored 411 nodes (99179 simplex iterations) in 56.16 seconds (155.98 work units)
Thread count was 8 (of 8 available processors)

Solution count 4: 5.07696 5.07696 5.39099 1177.27 

Optimal solution found (tolerance 7.00e-02)
Best objective 5.076955571808e+00, best bound 4.735791648061e+00, gap 6.7199%

Gurobi 11.0.3 (mac64[arm]) logging started Thu Sep 26 14:20:54 2024

Set parameter LogFile to value "SampleModel.log"
Gurobi Optimizer version 11.0.3 build v11.0.3rc0 (mac64[arm] - Darwin 23.4.0 23E214)

CPU model: Apple M1 Pro
Thread count: 8 physical cores, 8 logical processors, using up to 8 threads

Optimize a model with 60667 rows, 41135 columns and 165495 nonzeros
Model fingerprint: 0x2d905663
Variable types: 39633 continuous, 1502 integer (0 binary)
Coefficient statistics:
  Matrix range     [1e-03, 9e+04]
  Objective range  [2e-04, 2e-04]
  Bounds range     [0e+00, 0e+00]
  RHS range        [1e+00, 7e+03]
Presolve removed 28056 rows and 20739 columns
Presolve time: 0.08s
Presolved: 32611 rows, 20396 columns, 102132 nonzeros
Variable types: 18894 continuous, 1502 integer (0 binary)
Deterministic concurrent LP optimizer: primal and dual simplex
Showing primal log only...


Root simplex log...

Iteration    Objective       Primal Inf.    Dual Inf.      Time
   13892    6.5710304e+00   0.000000e+00   7.510004e+00      5s
   21302    5.0116644e+00   0.000000e+00   5.321348e+00     10s
   27158    4.7356763e+00   0.000000e+00   0.000000e+00     14s
Concurrent spin time: 2.68s (can be avoided by choosing Method=3)

Solved with primal simplex

Root relaxation: objective 4.735676e+00, 27158 iterations, 16.29 seconds (34.09 work units)

    Nodes    |    Current Node    |     Objective Bounds      |     Work
 Expl Unexpl |  Obj  Depth IntInf | Incumbent    BestBd   Gap | It/Node Time

     0     0    4.73568    0 1276          -    4.73568      -     -   17s
     0     0    4.73569    0 1275          -    4.73569      -     -   18s
     0     0    4.73569    0 1275          -    4.73569      -     -   19s
     0     0    4.73569    0 1275          -    4.73569      -     -   20s
     0     0    4.73569    0 1275          -    4.73569      -     -   20s
     0     0    4.73569    0 1275          -    4.73569      -     -   22s
H    0     0                    1177.2676089    4.73569   100%     -   26s
     0     2    4.73569    0 1275 1177.26761    4.73569   100%     -   28s
     7    16    4.78643    3 1304 1177.26761    4.73569   100%   668   30s
    31    40    4.79116    6 1291 1177.26761    4.73579   100%   411   36s
   104   124    4.82318   10 1263 1177.26761    4.73579   100%   291   40s
   191   221    4.84096   18 1227 1177.26761    4.73579   100%   228   46s
   306   352    4.85331   29 1244 1177.26761    4.73579   100%   204   50s
   403   412    4.85277   35 1246 1177.26761    4.73579   100%   172   56s
H  404   412                       5.3909897    4.73579  12.2%   172   56s
H  405   412                       5.0769556    4.73579  6.72%   172   56s

Cutting planes:
  Gomory: 2
  MIR: 14

Explored 411 nodes (99179 simplex iterations) in 56.31 seconds (155.98 work units)
Thread count was 8 (of 8 available processors)

Solution count 4: 5.07696 5.07696 5.39099 1177.27 

Optimal solution found (tolerance 7.00e-02)
Best objective 5.076955571808e+00, best bound 4.735791648061e+00, gap 6.7199%

Gurobi 11.0.3 (mac64[arm]) logging started Thu Sep 26 14:24:13 2024

Set parameter LogFile to value "SampleModel.log"
Gurobi Optimizer version 11.0.3 build v11.0.3rc0 (mac64[arm] - Darwin 23.4.0 23E214)

CPU model: Apple M1 Pro
Thread count: 8 physical cores, 8 logical processors, using up to 8 threads

Optimize a model with 60667 rows, 41135 columns and 165495 nonzeros
Model fingerprint: 0x2d905663
Variable types: 39633 continuous, 1502 integer (0 binary)
Coefficient statistics:
  Matrix range     [1e-03, 9e+04]
  Objective range  [2e-04, 2e-04]
  Bounds range     [0e+00, 0e+00]
  RHS range        [1e+00, 7e+03]
Presolve removed 28056 rows and 20739 columns
Presolve time: 0.07s
Presolved: 32611 rows, 20396 columns, 102132 nonzeros
Variable types: 18894 continuous, 1502 integer (0 binary)
Deterministic concurrent LP optimizer: primal and dual simplex
Showing primal log only...


Root simplex log...

Iteration    Objective       Primal Inf.    Dual Inf.      Time
   13892    6.5710304e+00   0.000000e+00   7.510004e+00      5s
   21302    5.0116644e+00   0.000000e+00   5.321348e+00     10s
   27158    4.7356763e+00   0.000000e+00   0.000000e+00     14s
Concurrent spin time: 2.66s (can be avoided by choosing Method=3)

Solved with primal simplex

Root relaxation: objective 4.735676e+00, 27158 iterations, 16.24 seconds (34.09 work units)

    Nodes    |    Current Node    |     Objective Bounds      |     Work
 Expl Unexpl |  Obj  Depth IntInf | Incumbent    BestBd   Gap | It/Node Time

     0     0    4.73568    0 1276          -    4.73568      -     -   17s
     0     0    4.73569    0 1275          -    4.73569      -     -   18s
     0     0    4.73569    0 1275          -    4.73569      -     -   19s
     0     0    4.73569    0 1275          -    4.73569      -     -   19s
     0     0    4.73569    0 1275          -    4.73569      -     -   20s
     0     0    4.73569    0 1275          -    4.73569      -     -   22s
H    0     0                    1177.2676089    4.73569   100%     -   26s
     0     2    4.73569    0 1275 1177.26761    4.73569   100%     -   28s
     7    16    4.78643    3 1304 1177.26761    4.73569   100%   668   30s
    31    40    4.79116    6 1291 1177.26761    4.73579   100%   411   36s
   104   124    4.82318   10 1263 1177.26761    4.73579   100%   291   40s
   191   221    4.84096   18 1227 1177.26761    4.73579   100%   228   46s
   306   352    4.85331   29 1244 1177.26761    4.73579   100%   204   50s
   403   412    4.85277   35 1246 1177.26761    4.73579   100%   172   56s
H  404   412                       5.3909897    4.73579  12.2%   172   56s
H  405   412                       5.0769556    4.73579  6.72%   172   56s

Cutting planes:
  Gomory: 2
  MIR: 14

Explored 411 nodes (99179 simplex iterations) in 56.25 seconds (155.98 work units)
Thread count was 8 (of 8 available processors)

Solution count 4: 5.07696 5.07696 5.39099 1177.27 

Optimal solution found (tolerance 7.00e-02)
Best objective 5.076955571808e+00, best bound 4.735791648061e+00, gap 6.7199%

Gurobi 11.0.3 (mac64[arm]) logging started Thu Sep 26 14:25:41 2024

Set parameter LogFile to value "SampleModel.log"
Gurobi Optimizer version 11.0.3 build v11.0.3rc0 (mac64[arm] - Darwin 23.4.0 23E214)

CPU model: Apple M1 Pro
Thread count: 8 physical cores, 8 logical processors, using up to 8 threads

Optimize a model with 60667 rows, 41135 columns and 165495 nonzeros
Model fingerprint: 0x2d905663
Variable types: 39633 continuous, 1502 integer (0 binary)
Coefficient statistics:
  Matrix range     [1e-03, 9e+04]
  Objective range  [2e-04, 2e-04]
  Bounds range     [0e+00, 0e+00]
  RHS range        [1e+00, 7e+03]
Presolve removed 28056 rows and 20739 columns
Presolve time: 0.08s
Presolved: 32611 rows, 20396 columns, 102132 nonzeros
Variable types: 18894 continuous, 1502 integer (0 binary)
Deterministic concurrent LP optimizer: primal and dual simplex
Showing primal log only...


Root simplex log...

Iteration    Objective       Primal Inf.    Dual Inf.      Time
   13652    6.7417755e+00   0.000000e+00   3.453230e+00      5s
   20842    5.0658436e+00   0.000000e+00   3.958465e-01     10s
   27158    4.7356763e+00   0.000000e+00   0.000000e+00     15s
Concurrent spin time: 2.51s (can be avoided by choosing Method=3)

Solved with primal simplex

Root relaxation: objective 4.735676e+00, 27158 iterations, 16.60 seconds (34.09 work units)

    Nodes    |    Current Node    |     Objective Bounds      |     Work
 Expl Unexpl |  Obj  Depth IntInf | Incumbent    BestBd   Gap | It/Node Time

     0     0    4.73568    0 1276          -    4.73568      -     -   17s
     0     0    4.73569    0 1275          -    4.73569      -     -   18s
     0     0    4.73569    0 1275          -    4.73569      -     -   19s
     0     0    4.73569    0 1275          -    4.73569      -     -   20s
     0     0    4.73569    0 1275          -    4.73569      -     -   20s
     0     0    4.73569    0 1275          -    4.73569      -     -   22s
H    0     0                    1177.2676089    4.73569   100%     -   27s
     0     2    4.73569    0 1275 1177.26761    4.73569   100%     -   28s
     3     8    4.74627    2 1285 1177.26761    4.73569   100%  1041   30s
    31    40    4.79116    6 1291 1177.26761    4.73579   100%   411   37s
    70    85    4.81029    8 1265 1177.26761    4.73579   100%   355   40s
   191   221    4.84096   18 1227 1177.26761    4.73579   100%   228   47s
   255   280    4.85063   24 1242 1177.26761    4.73579   100%   212   50s
   403   412    4.85277   35 1246 1177.26761    4.73579   100%   172   57s
H  404   412                       5.3909897    4.73579  12.2%   172   57s
H  405   412                       5.0769556    4.73579  6.72%   172   57s

Cutting planes:
  Gomory: 2
  MIR: 14

Explored 411 nodes (99179 simplex iterations) in 57.41 seconds (155.98 work units)
Thread count was 8 (of 8 available processors)

Solution count 4: 5.07696 5.07696 5.39099 1177.27 

Optimal solution found (tolerance 7.00e-02)
Best objective 5.076955571808e+00, best bound 4.735791648061e+00, gap 6.7199%

Gurobi 11.0.3 (mac64[arm]) logging started Thu Oct  3 12:18:21 2024

Set parameter LogFile to value "SampleModel.log"
Gurobi Optimizer version 11.0.3 build v11.0.3rc0 (mac64[arm] - Darwin 23.4.0 23E214)

CPU model: Apple M1 Pro
Thread count: 8 physical cores, 8 logical processors, using up to 8 threads

Optimize a model with 60667 rows, 41135 columns and 165495 nonzeros
Model fingerprint: 0x2d905663
Variable types: 39633 continuous, 1502 integer (0 binary)
Coefficient statistics:
  Matrix range     [1e-03, 9e+04]
  Objective range  [2e-04, 2e-04]
  Bounds range     [0e+00, 0e+00]
  RHS range        [1e+00, 7e+03]
Presolve removed 28056 rows and 20739 columns
Presolve time: 0.08s
Presolved: 32611 rows, 20396 columns, 102132 nonzeros
Variable types: 18894 continuous, 1502 integer (0 binary)
Deterministic concurrent LP optimizer: primal and dual simplex
Showing primal log only...


Root simplex log...

Iteration    Objective       Primal Inf.    Dual Inf.      Time
   14012    6.5144888e+00   0.000000e+00   2.691292e+00      5s
   21422    4.9989455e+00   0.000000e+00   2.964676e+03     10s
   27158    4.7356763e+00   0.000000e+00   0.000000e+00     14s
Concurrent spin time: 2.66s (can be avoided by choosing Method=3)

Solved with primal simplex

Root relaxation: objective 4.735676e+00, 27158 iterations, 16.23 seconds (34.09 work units)

    Nodes    |    Current Node    |     Objective Bounds      |     Work
 Expl Unexpl |  Obj  Depth IntInf | Incumbent    BestBd   Gap | It/Node Time

     0     0    4.73568    0 1276          -    4.73568      -     -   17s
     0     0    4.73569    0 1275          -    4.73569      -     -   18s
     0     0    4.73569    0 1275          -    4.73569      -     -   19s
     0     0    4.73569    0 1275          -    4.73569      -     -   19s
     0     0    4.73569    0 1275          -    4.73569      -     -   20s
     0     0    4.73569    0 1275          -    4.73569      -     -   22s
H    0     0                    1177.2676089    4.73569   100%     -   26s
     0     2    4.73569    0 1275 1177.26761    4.73569   100%     -   28s
     7    16    4.78643    3 1304 1177.26761    4.73569   100%   668   30s
    31    40    4.79116    6 1291 1177.26761    4.73579   100%   411   36s
    84   105    4.82313    9 1269 1177.26761    4.73579   100%   345   40s
   191   221    4.84096   18 1227 1177.26761    4.73579   100%   228   47s
   306   352    4.85331   29 1244 1177.26761    4.73579   100%   204   50s
   403   412    4.85277   35 1246 1177.26761    4.73579   100%   172   56s
H  404   412                       5.3909897    4.73579  12.2%   172   56s
H  405   412                       5.0769556    4.73579  6.72%   172   56s
   436   477    4.85285   36 1246    5.07696    4.73579  6.72%   168   60s
   676   749    4.88916   55 1207    5.07696    4.73579  6.72%   158   65s
   752   757    4.89271   70 1209    5.07696    4.73579  6.72%   150  100s
   853   858    4.90742   74 1208    5.07696    4.73579  6.72%   144  108s
   861   946    4.90939   75 1209    5.07696    4.73579  6.72%   146  111s
  1178  1295    4.92241  111  769    5.07696    4.73579  6.72%   125  115s
  1430  1439    4.93079  154  732    5.07696    4.73579  6.72%   116  123s
  1604  1734    4.93329  171  719    5.07696    4.73579  6.72%   111  125s
H 1759  1718                       5.0749563    4.73579  6.68%   108  127s
  1932  2100    4.93648  202  694    5.07496    4.73579  6.68%   104  130s
  2793  2902    4.94499  331  990    5.07496    4.73579  6.68%  87.0  137s
H 2817  2874                       5.0457367    4.73579  6.14%  86.5  137s
  3279  3546    4.94857  384  565    5.04574    4.73579  6.14%  81.1  140s
H 4344  3724                       5.0177159    4.73579  5.62%  69.9  146s
  4883  4443    4.96126  628  459    5.01772    4.73579  5.62%  67.6  151s
  5422  4960    4.96547  727  651    5.01772    4.73579  5.62%  67.7  156s
H 5999  3967                       4.9913511    4.73579  5.12%  66.9  161s
H 6117  2593                       4.9660039    4.73579  4.64%  67.0  161s

Cutting planes:
  Gomory: 2
  MIR: 16

Explored 6118 nodes (437237 simplex iterations) in 161.26 seconds (470.22 work units)
Thread count was 8 (of 8 available processors)

Solution count 9: 4.966 4.966 4.99135 ... 1177.27

Optimal solution found (tolerance 5.00e-02)
Best objective 4.966003914646e+00, best bound 4.735791648061e+00, gap 4.6358%

Gurobi 11.0.3 (mac64[arm]) logging started Thu Oct  3 12:22:36 2024

Set parameter LogFile to value "SampleModel.log"
Gurobi Optimizer version 11.0.3 build v11.0.3rc0 (mac64[arm] - Darwin 23.4.0 23E214)

CPU model: Apple M1 Pro
Thread count: 8 physical cores, 8 logical processors, using up to 8 threads

Optimize a model with 60667 rows, 41135 columns and 160546 nonzeros
Model fingerprint: 0xd34f1c51
Variable types: 39633 continuous, 1502 integer (0 binary)
Coefficient statistics:
  Matrix range     [1e-03, 4e+05]
  Objective range  [2e-04, 2e-04]
  Bounds range     [0e+00, 0e+00]
  RHS range        [1e+01, 7e+03]
Presolve removed 28748 rows and 21548 columns
Presolve time: 0.08s
Presolved: 31919 rows, 19587 columns, 95798 nonzeros
Variable types: 18085 continuous, 1502 integer (0 binary)

Root simplex log...

Iteration    Objective       Primal Inf.    Dual Inf.      Time
   16249    7.5572875e+00   0.000000e+00   2.782995e-01      5s
   22519    3.5149159e+00   0.000000e+00   3.296817e+00     10s
   28265    3.3719327e+00   0.000000e+00   0.000000e+00     15s

Root relaxation: objective 3.371933e+00, 28265 iterations, 14.81 seconds (32.80 work units)
Total elapsed time = 15.10s (DegenMoves)

    Nodes    |    Current Node    |     Objective Bounds      |     Work
 Expl Unexpl |  Obj  Depth IntInf | Incumbent    BestBd   Gap | It/Node Time

     0     0    3.37193    0 1236          -    3.37193      -     -   15s
H    0     0                    9011.0723417    3.37193   100%     -   16s
     0     0    3.38305    0 1250 9011.07234    3.38305   100%     -   17s
     0     0    3.38365    0 1250 9011.07234    3.38365   100%     -   19s
     0     0    3.38365    0 1255 9011.07234    3.38365   100%     -   19s
     0     0    3.38365    0 1255 9011.07234    3.38365   100%     -   19s
     0     0    3.38368    0 1256 9011.07234    3.38368   100%     -   20s
     0     0    3.38368    0 1256 9011.07234    3.38368   100%     -   22s
     0     0    3.38368    0 1256 9011.07234    3.38368   100%     -   22s
     0     0    3.38368    0 1255 9011.07234    3.38368   100%     -   22s
     0     2    3.38368    0 1255 9011.07234    3.38368   100%     -   24s
    15    24    3.38769    4 1253 9011.07234    3.38368   100%  79.2   25s
    31    40    3.41290    5 1238 9011.07234    3.38368   100%  95.3   30s
    78    92    3.41417   10 1229 9011.07234    3.38368   100%  97.2   35s
   313   338    3.43385   36 1212 9011.07234    3.38368   100%  84.2   40s
H  511   565                    9008.6585105    3.38368   100%  62.3   41s
H  559   565                    9008.5913201    3.38368   100%  58.0   41s
H  651   683                    8660.6559034    3.38368   100%  55.6   46s
H  671   683                    2777.5893168    3.38368   100%  54.2   46s
H  723   732                      13.5688512    3.38368  75.1%  59.2   70s
H  724   732                       9.7177398    3.38368  65.2%  59.3   70s
   731   746    3.47599   75 1201    9.71774    3.38368  65.2%  60.2   75s
H  733   746                       4.3271137    3.38368  21.8%  60.1   75s
   876   944    3.48990   96 1195    4.32711    3.38368  21.8%  71.9   80s
  1033  1042    3.51808  114 1176    4.32711    3.38368  21.8%  92.8   92s
H 1034  1042                       4.1098809    3.38368  17.7%  92.7   92s
H 1038  1042                       4.0891232    3.38368  17.3%  92.6   92s
  1091  1199    3.51931  115 1175    4.08912    3.38368  17.3%  98.3   96s
  1496  1702    3.52787  122 1170    4.08912    3.38368  17.3%  83.5  101s
  2202  2232    3.57740  169 1002    4.08912    3.38368  17.3%  62.3  106s
  3155  3417    3.58189  279  913    4.08912    3.38368  17.3%  46.7  110s
  4332  4507    3.58565  441  739    4.08912    3.38368  17.3%  38.7  115s
  5404  5685    3.59819  574  643    4.08912    3.38368  17.3%  36.5  120s
  6528  6824    3.59948  641  592    4.08912    3.38368  17.3%  34.5  126s
  7517  7518    3.59491  583 1255    4.08912    3.38368  17.3%  33.1  166s
  7519  7519    3.60236  629 1241    4.08912    3.38368  17.3%  33.1  186s
  7521  7521    3.59262  688 1254    4.08912    3.38391  17.2%  33.0  190s
  7524  7523    3.44048   57 1259    4.08912    3.38500  17.2%  33.0  197s
  7526  7524    3.61303  755 1260    4.08912    3.38535  17.2%  33.0  200s
  7530  7527    3.60496  538 1256    4.08912    3.38537  17.2%  33.0  205s
  7536  7531    3.62019  827 1256    4.08912    3.38537  17.2%  33.0  211s
  7543  7536    3.65857  216 1240    4.08912    3.38537  17.2%  38.5  237s
  7544  7537    3.58214  418 1251    4.08912    3.38537  17.2%  38.5  243s
  7546  7538    3.57570  326 1259    4.08912    3.38537  17.2%  38.5  246s
  7550  7541    3.59452  694 1260    4.08912    3.38537  17.2%  38.5  250s
  7556  7545    3.58109  254 1259    4.08912    3.38537  17.2%  38.4  255s
  7557  7546    3.57987  213 1259    4.08912    3.38537  17.2%  38.4  272s
  7560  7553    3.38537   26 1262    4.08912    3.38537  17.2%  44.5  275s
  7588  7575    3.38537   29 1256    4.08912    3.38537  17.2%  46.3  281s
  7618  7601    3.38618   31 1253    4.08912    3.38618  17.2%  47.2  285s
  7632  7607    3.39180   32 1262    4.08912    3.38618  17.2%  48.1  295s
  7664  7633    3.39166   34 1258    4.08912    3.38709  17.2%  50.7  301s
  7679  7645    3.39630   34 1250    4.08912    3.38775  17.2%  51.8  305s
  7711  7658    3.39166   35 1261    4.08912    3.38775  17.2%  57.2  321s
  7720  7665    3.39611   36 1254    4.08912    3.38775  17.2%  58.0  325s
  7751  7695    3.39705   38 1252    4.08912    3.38775  17.2%  64.7  333s
  7770  7702    3.40234   39 1247    4.08912    3.38775  17.2%  68.1  340s
  7783  7715    3.40659   39 1246    4.08912    3.38775  17.2%  71.8  345s
  7801  7721    3.45462   40 1130    4.08912    3.38775  17.2%  76.0  351s
  7813  7730    3.40425   41 1249    4.08912    3.38775  17.2%  78.3  355s
  7826  7742    3.40513   42 1251    4.08912    3.38775  17.2%  81.3  360s
  7842  7751    3.40539   43 1250    4.08912    3.38775  17.2%  84.5  366s
  7856  7762    3.45499   43 1147    4.08912    3.38775  17.2%  88.4  371s
  7872  7777    3.40568   44 1249    4.08912    3.38775  17.2%  91.3  377s
  7892  7785    3.40588   45 1248    4.08912    3.38775  17.2%  94.8  383s
  7907  7795    3.41410   46 1242    4.08912    3.38775  17.2%  97.9  387s
  7922  7812    3.40665   47 1240    4.08912    3.38775  17.2%   101  392s
  7944  7820    3.40673   48 1239    4.08912    3.38775  17.2%   106  399s
  7959  7830    3.40679   49 1238    4.08912    3.38775  17.2%   109  405s
  7974  7843    3.40711   50 1237    4.08912    3.38775  17.2%   112  410s
  7992  7854    3.40721   51 1237    4.08912    3.38775  17.2%   115  416s
  8009  7865    3.40766   52 1238    4.08912    3.38775  17.2%   119  422s
  8026  7891    3.40797   53 1237    4.08912    3.38775  17.2%   123  428s
  8058  7908    3.40803   54 1237    4.08912    3.38775  17.2%   126  434s
  8085  7914    3.40871   55 1236    4.08912    3.38775  17.2%   130  440s
  8100  7945    3.40883   56 1235    4.08912    3.38775  17.2%   133  447s
H 8136  7567                       4.0355428    3.38775  16.1%   137  498s
  8148  7585    3.45776   57 1135    4.03554    3.38775  16.1%   138  504s
  8170  7606    3.40896   58 1233    4.03554    3.38775  16.1%   141  512s
  8199  7644    3.40920   59 1232    4.03554    3.38775  16.1%   145  522s
  8246  7676    3.40929   61 1230    4.03554    3.38775  16.1%   151  532s
  8294  7738    3.40956   63 1228    4.03554    3.38775  16.1%   155  540s
  8372  7766    3.40982   65 1226    4.03554    3.38775  16.1%   159  548s
  8426  7788    3.40992   67 1224    4.03554    3.38775  16.1%   163  557s
  8466  7815    3.41030   69 1222    4.03554    3.38775  16.1%   169  566s
  8506  7887    3.41102   71 1221    4.03554    3.38775  16.1%   174  578s
  8592  7901    3.41123   74 1216    4.03554    3.38775  16.1%   179  587s
  8634  7945    3.41137   76 1215    4.03554    3.38775  16.1%   184  599s
  8692  7977    3.41163   78 1214    4.03554    3.38775  16.1%   187  612s
  8744  7987    3.41205   82 1210    4.03554    3.38775  16.1%   193  616s

Cutting planes:
  Gomory: 8
  MIR: 854

Explored 8771 nodes (1723286 simplex iterations) in 616.54 seconds (1605.35 work units)
Thread count was 8 (of 8 available processors)

Solution count 10: 4.03554 4.03554 4.08912 ... 9008.59

Solve interrupted
Best objective 4.035542795795e+00, best bound 3.387745911460e+00, gap 16.0523%
